; benchmark generated from python API
(set-info :status unknown)
(declare-fun S_1 () Real)
(declare-fun S_0 () Real)
(declare-fun C () Real)
(declare-fun A_0 () Real)
(declare-fun L_0 () Real)
(declare-fun L0 () Real)
(declare-fun B () Real)
(declare-fun S_5 () Real)
(declare-fun S_4 () Real)
(declare-fun A_1 () Real)
(declare-fun S_3 () Real)
(declare-fun S_2 () Real)
(declare-fun A_5 () Real)
(declare-fun Q_5 () Real)
(declare-fun A_3 () Real)
(declare-fun A_2 () Real)
(declare-fun L_3 () Real)
(declare-fun A_4 () Real)
(declare-fun L_2 () Real)
(declare-fun L_4 () Real)
(declare-fun L_1 () Real)
(assert
 (let (($x42 (>= L0 0.0)))
 (let (($x685 (>= C 5.0)))
 (let (($x701 (>= B 5.0)))
 (let (($x37286 (<= 0.0 (+ C (* (- 1.0) A_1) L_0 S_0))))
 (let (($x37532 (not $x37286)))
 (let (($x36690 (<= A_3 (+ (* (- 1.0) Q_5) A_5 (* (- 2.0) C)))))
 (let (($x36593 (not (<= (+ A_3 (* (- 1.0) L_3)) (+ A_2 (* (- 1.0) L_0) C)))))
 (let (($x36550 (<= A_4 (+ (* (- 1.0) Q_5) A_5 (* (- 1.0) C)))))
 (let (($x35836 (<= (+ A_2 (* (- 1.0) A_1) (* (- 1.0) C)) 0.0)))
 (let (($x35992 (not $x35836)))
 (let (($x1120 (<= Q_5 0.0)))
 (let (($x37601 (<= (+ (* (- 1.0) C) (* (- 1.0) L_0) A_2 (* (- 1.0) S_1)) 0.0)))
 (let (($x37602 (not $x37601)))
 (let ((?x331 (* (- 1.0) C)))
 (let ((?x602 (* (- 1.0) A_3)))
 (let ((?x35258 (+ A_4 ?x602 ?x331)))
 (let (($x35811 (<= ?x35258 0.0)))
 (let (($x4149 (not (= L_0 L_2))))
 (let (($x37462 (<= (+ (* (- 1.0) Q_5) A_5 (* (- 5.0) C)) A_0)))
 (let (($x1558 (= Q_5 B)))
 (let (($x36477 (<= (+ A_3 (* (- 1.0) L_0) L_4 (* (- 1.0) A_4) C) 0.0)))
 (let (($x993 (not (<= L_3 L_2))))
 (let (($x991 (not (<= L_2 L_1))))
 (let (($x984 (<= L_1 L_0)))
 (let (($x985 (not $x984)))
 (let ((?x659 (* (- 2.0) C)))
 (let ((?x606 (* (- 1.0) A_2)))
 (let ((?x35825 (+ A_4 ?x606 ?x659)))
 (let (($x35826 (<= ?x35825 0.0)))
 (let (($x38522 (not $x35826)))
 (let ((?x316 (+ A_3 ?x606 ?x331)))
 (let (($x510 (<= ?x316 0.0)))
 (let (($x36779 (<= A_2 (+ (* (- 1.0) Q_5) A_5 (* (- 3.0) C)))))
 (let (($x79458 (or (>= S_4 (+ A_3 (* (- 1.0) L_0))) $x35992 (>= S_4 (+ A_2 (* (- 1.0) L_0) C)) $x37532)))
 (let (($x38357 (not (<= 0.0 (+ C (* (- 1.0) L_0) (* (- 1.0) A_4) L_4 A_3)))))
 (let (($x37457 (>= S_0 (+ (* (- 1.0) Q_5) A_5 (* (- 1.0) L_0) (* (- 6.0) C)))))
 (let (($x994 (<= L_4 L_3)))
 (let (($x996 (not $x994)))
 (let (($x37787 (<= A_1 (+ (* (- 1.0) Q_5) A_5 (* (- 4.0) C)))))
 (let ((?x6106 (* (- 5.0) C)))
 (let ((?x705 (* (- 1.0) L_0)))
 (let ((?x590 (* (- 1.0) Q_5)))
 (let ((?x36880 (+ ?x590 A_5 ?x705 ?x6106)))
 (let (($x36881 (<= S_0 ?x36880)))
 (let (($x36525 (not (<= A_3 (+ A_2 C)))))
 (let ((?x357 (* (- 1.0) L_2)))
 (let ((?x1060 (+ A_3 ?x357)))
 (let (($x3622 (>= S_4 ?x1060)))
 (let (($x45632 (or $x3622 $x35836 $x37532 (<= (+ A_1 (* 2.0 C) ?x705 (* (- 1.0) S_4)) 0.0))))
 (let (($x41594 (<= (+ (* (- 4.0) C) A_4 (* (- 1.0) A_0)) 0.0)))
 (let (($x41440 (or $x985 $x991 $x993 $x1558 (not (= (+ A_4 C) (+ A_5 ?x590))) $x41594)))
 (let ((?x2321 (+ A_1 ?x606 C)))
 (let (($x3795 (<= ?x2321 0.0)))
 (let (($x43489 (or $x510 $x1120 $x3795 $x36550 $x36779 (not (<= (+ ?x659 ?x705 (* (- 1.0) S_0) A_2) 0.0)))))
 (let (($x37878 (<= (+ ?x659 ?x705 (* (- 1.0) S_0) A_2) 0.0)))
 (let (($x79374 (or $x1120 $x36550 $x36690 (<= S_1 (+ ?x590 A_5 ?x705 (* (- 4.0) C))) $x37601)))
 (let ((?x373 (* (- 1.0) L_1)))
 (let ((?x36041 (+ A_2 ?x373 C)))
 (let (($x36879 (>= S_4 ?x36041)))
 (let (($x77797 (or $x3622 $x36879 (<= (+ (* 2.0 C) (* (- 1.0) S_4) S_1) 0.0))))
 (let (($x78021 (or $x3622 $x36879 $x37286 (<= (+ (* 3.0 C) S_0 (* (- 1.0) S_4)) 0.0))))
 (let (($x49355 (or $x991 $x993 $x996 $x1558 (= (+ ?x590 (* (- 1.0) A_1) (* (- 4.0) C) A_5) 0.0) (not $x37787))))
 (let (($x77665 (or $x993 $x996 $x1558 (not $x36779) (= (+ A_5 ?x590) (+ A_2 (* 3.0 C))))))
 (let (($x35978 (<= (+ A_3 (* (- 1.0) A_1) ?x659) 0.0)))
 (let (($x2388 (not (= L_3 L_4))))
 (let (($x79573 (or $x991 $x1558 $x2388 $x35978 (not (= (+ A_3 (* 2.0 C)) (+ A_5 ?x590))))))
 (let (($x43038 (or $x985 $x991 $x993 $x1558 $x2388 (>= S_2 (+ ?x590 A_5 ?x705 (* (- 4.0) C))))))
 (let (($x81446 (or $x985 $x991 $x993 $x996 $x1558 (>= S_3 (+ ?x590 A_5 ?x705 (* (- 3.0) C))))))
 (let ((?x570 (* (- 1.0) L_4)))
 (let ((?x645 (* (- 1.0) B)))
 (let ((?x36394 (+ ?x645 ?x570 A_4 ?x331)))
 (let ((?x4533 (+ A_3 ?x705)))
 (let (($x36395 (<= ?x4533 ?x36394)))
 (let (($x89 (= L_4 L_3)))
 (let (($x44074 (or $x1120 $x36550 (<= (+ A_3 Q_5 (* (- 1.0) A_5) (* 2.0 C)) B))))
 (let ((?x36412 (+ ?x645 ?x570 A_4 ?x659)))
 (let ((?x1456 (+ A_2 ?x705)))
 (let (($x36413 (<= ?x1456 ?x36412)))
 (let (($x1405 (not (<= L_2 L_0))))
 (let (($x48874 (or $x89 $x1405 $x36395 $x36413 (<= (+ A_1 ?x705 L_4 (* (- 1.0) A_4) (* 3.0 C)) 0.0))))
 (let (($x38398 (= (+ ?x645 A_4 (* (- 3.0) C) L_0 ?x570 (* (- 1.0) A_1)) 0.0)))
 (let (($x47308 (or (not (<= (+ A_1 ?x705) (+ ?x645 ?x570 A_4 (* (- 3.0) C)))) $x38398)))
 (let (($x5662 (not (= L_0 L_3))))
 (let (($x5567 (= L_4 L_0)))
 (let ((?x1725 (* (- 3.0) C)))
 (let ((?x36611 (+ ?x645 ?x570 A_4 ?x1725)))
 (let ((?x1035 (+ A_1 ?x705)))
 (let (($x36612 (<= ?x1035 ?x36611)))
 (let (($x79617 (or $x89 $x985 $x991 $x36395 $x36413 (<= S_0 (+ ?x645 ?x570 A_4 (* (- 4.0) C))) $x37286)))
 (let ((?x1048 (+ A_2 ?x373)))
 (let (($x3225 (>= S_3 ?x1048)))
 (let (($x43354 (or (>= S_3 ?x1456) $x37532 (<= (+ C ?x705 (* (- 1.0) S_3) A_1) 0.0))))
 (let ((?x379 (* (- 1.0) L_3)))
 (let ((?x36150 (+ ?x645 ?x379 A_3 ?x331)))
 (let (($x36243 (<= ?x1456 ?x36150)))
 (let (($x1540 (not (= L_0 L_1))))
 (let (($x79 (= L_3 L_2)))
 (let (($x78136 (or $x79 $x1540 $x36243 (<= (+ A_1 ?x705 L_3 ?x602 (* 2.0 C)) 0.0))))
 (let (($x45048 (or (not (<= ?x1035 (+ ?x645 ?x379 A_3 ?x659))) (= (+ ?x645 ?x659 L_0 ?x379 A_3 (* (- 1.0) A_1)) 0.0))))
 (let (($x45934 (or $x3225 $x37286 (<= (+ (* 2.0 C) S_0 (* (- 1.0) S_3)) 0.0))))
 (let (($x44243 (or $x89 $x985 (not (<= L_3 L_1)) $x36395 (<= (+ A_2 ?x705 L_4 (* (- 1.0) A_4) (* 2.0 C)) 0.0))))
 (let (($x44640 (or (<= (+ ?x705 (* (- 1.0) S_2) A_1) 0.0) (<= (+ C S_0 (* (- 1.0) S_2)) 0.0))))
 (let (($x3972 (= L_3 L_1)))
 (let (($x1364 (not (= L_1 L_2))))
 (let (($x45693 (or (= (+ ?x645 ?x331 L_0 A_2 ?x357 (* (- 1.0) A_1)) 0.0) (not (<= ?x1035 (+ ?x645 ?x357 A_2 ?x331))))))
 (let (($x59 (= L_1 L_0)))
 (let (($x80162 (or $x59 $x991 $x993 $x2388 (<= (+ A_4 (* (- 1.0) A_1) ?x1725) 0.0))))
 (let (($x37096 (not (<= (+ A_3 ?x379) ?x36041))))
 (let (($x35064 (<= A_2 (+ A_1 ?x645 C))))
 (let (($x35997 (not $x35064)))
 (let (($x35773 (not $x35811)))
 (let (($x35913 (<= A_3 (+ A_1 ?x645 (* 2.0 C)))))
 (let (($x36126 (not $x35913)))
 (let (($x36813 (<= (+ A_1 Q_5 (* (- 1.0) A_5) (* 4.0 C)) B)))
 (let (($x79576 (or $x59 $x991 $x993 $x1558 $x2388 (= (+ A_5 ?x590) (+ A_1 ?x645 (* 4.0 C))) (not $x36813))))
 (let (($x36691 (not $x36690)))
 (let ((?x1179 (* 2.0 C)))
 (let ((?x36254 (+ A_3 ?x1179)))
 (let ((?x1121 (+ A_5 ?x590)))
 (let (($x36688 (= ?x1121 ?x36254)))
 (let (($x69 (= L_2 L_1)))
 (let (($x43834 (or $x69 $x993 $x996 $x1558 (= ?x1121 (+ A_2 ?x645 (* 3.0 C))) (not (<= (+ A_2 Q_5 (* (- 1.0) A_5) (* 3.0 C)) B)))))
 (let (($x36382 (<= (+ A_2 Q_5 (* (- 1.0) A_5) (* 3.0 C)) B)))
 (let (($x34990 (<= A_3 (+ A_2 ?x645 C))))
 (let ((?x34516 (+ ?x645 ?x357 A_2 ?x331)))
 (let (($x36572 (<= ?x1035 ?x34516)))
 (let (($x34481 (= ?x1121 (+ A_4 ?x645 C))))
 (let (($x4820 (= Q_5 0.0)))
 (let (($x4825 (not $x4820)))
 (let (($x78288 (or $x89 $x4825 $x34481 (not (<= (+ A_4 Q_5 (* (- 1.0) A_5) C) B)))))
 (let ((?x978 (+ A_4 ?x570 ?x645)))
 (let (($x36461 (= ?x978 (+ A_3 ?x373 C))))
 (let (($x3285 (= L_4 L_1)))
 (let (($x53121 (or $x984 $x991 $x994 $x35064 (= (+ A_4 ?x570) (+ A_1 ?x373 (* 3.0 C))) $x35913)))
 (let ((?x35903 (+ A_3 ?x357 C)))
 (let (($x36052 (= ?x978 ?x35903)))
 (let (($x3479 (= L_4 L_2)))
 (let (($x1552 (not (= L_2 L_3))))
 (let ((?x35375 (+ A_4 C)))
 (let (($x35971 (= ?x1121 ?x35375)))
 (let (($x1539 (not $x1558)))
 (let (($x77830 (or $x1539 (not (<= A_4 (+ A_3 ?x590 C))) $x35971 (not (<= (+ A_5 (* (- 1.0) A_4) ?x331) Q_5)))))
 (let (($x34945 (<= A_4 (+ A_3 ?x590 C))))
 (let (($x34915 (<= A_4 (+ A_3 ?x645 C))))
 (let (($x1117 (not $x1120)))
 (let (($x36163 (or $x1117 $x4820)))
 (let (($x44847 (or $x1539 (not (<= (+ A_5 (* (- 1.0) A_4) ?x331) 0.0)) (= A_5 ?x35375))))
 (let (($x41 (>= L_0 L0)))
 (let (($x131 (>= S_1 S_0)))
 (let (($x134 (>= S_2 S_1)))
 (let (($x137 (>= S_3 S_2)))
 (let (($x140 (>= S_4 S_3)))
 (let (($x145 (>= A_1 A_0)))
 (let (($x146 (>= A_2 A_1)))
 (let (($x147 (>= A_3 A_2)))
 (let (($x148 (>= A_4 A_3)))
 (and (<= (+ A_4 ?x570) S_5) $x148 $x147 $x146 $x145 $x140 $x137 $x134 $x131 $x41 (or $x89 (<= S_4 ?x978)) (or $x79 (<= S_3 (+ A_3 ?x379 ?x645))) (>= S_3 (+ A_2 ?x357 ?x645)) (or $x59 (<= S_1 (+ A_1 ?x373 ?x645))) (>= S_4 (+ A_3 ?x379 ?x645)) (or $x69 $x991) (or $x69 (<= S_2 (+ A_2 ?x357 ?x645))) (<= Q_5 B) (<= S_5 (+ ?x570 A_5 ?x590)) (or $x89 $x996) (or (>= S_0 (+ ?x645 ?x705 A_1 ?x659)) $x1540) (or $x59 $x985) (>= S_0 (+ ?x645 ?x373 A_1 ?x659)) (or $x59 (<= S_0 (+ ?x645 ?x373 A_1 ?x331))) (or $x59 $x69 (= (+ A_2 ?x357) (+ A_1 ?x373 C))) (>= S_2 (+ A_1 ?x373 ?x645)) (>= S_1 (+ ?x645 ?x373 A_1 ?x331)) (<= (+ ?x645 ?x373 A_1 ?x331) (+ A_0 ?x705)) (or $x69 (<= (+ A_1 ?x705 L_2 ?x606 C) 0.0) $x985) (or $x89 $x1120 $x1558 $x34481) (or $x79 $x89 (= (+ A_4 ?x570) (+ A_3 ?x379 C))) (or $x69 $x79 (= (+ A_3 ?x379) (+ A_2 ?x357 C))) (or $x79 (<= S_4 (+ A_3 ?x379 ?x645 C))) (or $x79 $x993) $x44847 (or $x69 $x510 $x1552) (or (>= S_4 (+ A_2 ?x357 ?x645 C)) $x34990) (or $x69 (<= S_1 ?x34516)) (>= S_2 ?x34516) (or $x69 (<= S_3 (+ A_2 ?x357 ?x645 C))) (or $x69 $x994 (= (+ A_4 ?x570) (+ A_2 ?x357 ?x1179)) $x34990) (or $x89 (<= S_5 (+ A_4 ?x570 ?x590 C))) (or $x59 (<= S_2 (+ A_1 ?x373 ?x645 C))) (or $x79 $x2388 $x35811) (or $x59 $x1364 $x35836) (or $x3622 (not $x34990)) (or $x3479 (not $x34990) $x36052) (<= S_3 ?x1060) (or $x1120 $x1558 (not $x34915) $x35971) (or $x79 $x984 $x35064 (= (+ A_3 ?x379) (+ A_1 ?x373 ?x1179))) (<= S_2 ?x1048) (or $x3972 $x35997 (= (+ A_3 ?x379 ?x645) ?x36041)) (<= S_5 (+ A_4 ?x379 C)) $x36163 (or $x79 $x1120 $x1558 $x2388 $x34915 (= ?x1121 (+ A_3 ?x645 ?x1179))) (or $x3225 (>= S_3 (+ A_1 ?x373 ?x645 C))) (or $x59 $x991 $x1552 $x35978) (or $x1539 $x34945 (not (<= (+ A_5 ?x602 ?x659) 0.0)) (= A_5 ?x36254)) $x77830 (not (<= (+ A_5 ?x570) S_5)) (or $x1120 (<= (+ A_4 Q_5 (* (- 1.0) A_5) C) B)) (or (not $x36395) (= ?x978 (+ A_3 ?x705 C))) (or (not (= L_2 L_4)) (<= ?x35258 B)) (or $x1552 $x3479 $x36052 (<= S_2 ?x36412)) $x53121 (or (not (= L_1 L_3)) $x3285 $x35064 $x36126 $x36461) (>= S_4 ?x36394) (or $x510 $x994 $x35997 (= ?x978 (+ A_2 ?x373 ?x1179))) (or $x3285 $x35997 $x36461 $x36525) $x78288 (<= (+ ?x645 ?x357 A_2 ?x659) (+ A_0 ?x705)) (or $x79 (<= S_5 (+ A_3 ?x379 ?x590 ?x1179))) (>= S_0 (+ ?x645 ?x357 A_2 ?x1725)) (or $x69 (<= S_0 (+ ?x645 ?x357 A_2 ?x659)) $x36572) (or $x79 $x985 $x36243 (<= S_1 (+ ?x645 ?x379 A_3 ?x659))) (or $x89 (<= S_3 ?x36394)) (<= S_4 (+ A_4 ?x379)) (or $x1120 (not $x34990) $x35811 $x36690) (or $x1120 $x34990 $x36382 $x36550) $x43834 (or $x1120 (not $x34990) $x35773 $x36550) (or $x69 $x2388 $x35811 $x35826) (or $x69 (<= S_4 (+ A_2 ?x357 ?x645 ?x1179))) (or $x69 (<= S_5 (+ A_2 ?x357 ?x590 (* 3.0 C)))) (or $x79 $x996 $x1117 (<= A_5 (+ A_3 ?x645 ?x1179))) (or $x1558 $x35971 (not $x36550)) (or $x59 (<= S_3 (+ A_1 ?x373 ?x645 ?x1179))) (or $x996 (>= Q_5 5.0) $x36688 $x36691) (or $x996 $x1558 $x36688 $x36691) $x79576 (or $x1120 $x35064 $x35913 $x36550 $x36813) (or $x1120 $x35064 $x36126 $x36550 $x36690) (<= (+ L_0 S_1 (* (- 1.0) A_1)) 0.0) (<= S_4 ?x35903) (or $x59 (<= S_4 (+ A_1 ?x373 ?x645 (* 3.0 C)))) (or $x3622 $x35064 (>= S_4 (+ A_1 ?x373 ?x645 ?x1179))) (or $x1120 $x35811 $x35997 $x36690 $x37096) (or $x510 $x1120 $x35997 $x36550 $x36779) (or (>= S_4 (+ A_3 ?x373)) $x35997 $x36879) (or $x1120 $x35773 $x35997 $x36550 $x37096) (<= S_5 (+ A_3 ?x357 ?x1179)) (or $x59 (<= S_5 (+ A_1 ?x373 ?x590 (* 4.0 C)))) $x80162 $x45693 (or $x2388 $x35811 (<= ?x35825 B)) (or $x985 $x1364 $x3972 (<= (+ A_2 ?x705 L_3 ?x602 C) 0.0)) (>= S_1 (+ ?x645 ?x357 A_2 ?x659)) (>= S_3 ?x36150) (or (not $x36243) (= (+ ?x331 ?x645 L_0 ?x379 A_3 ?x606) 0.0)) (>= S_0 (+ ?x645 ?x379 A_3 (* (- 4.0) C))) (<= (+ ?x331 L_0 (* (- 1.0) A_0) S_1) 0.0) (<= (+ ?x645 ?x379 A_3 ?x1725) (+ A_0 ?x705)) (or $x985 $x991 $x1552 $x3479 $x36477) (>= S_2 (+ ?x645 ?x379 A_3 ?x659)) (or $x79 $x35836 (<= ?x1035 (+ ?x645 ?x379 A_3 ?x659)) $x37532) (or (= L_3 L_0) $x35992 $x36243 $x37532) $x44640 (>= S_1 (+ ?x645 ?x379 A_3 ?x1725)) (or $x35836 (not $x36243)) (>= S_3 ?x36412) (or $x79 (<= S_2 ?x36150)) (or $x1120 (<= S_4 (+ ?x590 A_5 ?x705 ?x331))) $x44243 $x45934 $x45048 (or $x79 $x985 (<= S_0 (+ ?x645 ?x379 A_3 ?x1725)) $x36243 $x37286) $x78136 $x43354 (or (not $x36413) (= (+ ?x645 A_4 ?x659 L_0 ?x570 ?x606) 0.0)) (<= (+ ?x331 L_0 S_2 (* (- 1.0) A_1)) 0.0) (or $x3225 (<= (+ C (* (- 1.0) S_3) S_1) 0.0)) (or $x89 $x985 $x991 $x36395 $x36413 (<= S_1 ?x36611)) $x79617 (or $x89 $x1405 $x35836 $x35978 $x36612 $x37532) (or $x5567 $x5662 $x35836 (not $x35978) $x36395 $x37532) (>= S_2 ?x36611) (or $x35836 (not $x36413)) $x47308 $x48874 (>= S_1 (+ ?x645 ?x570 A_4 (* (- 4.0) C))) (or $x89 $x510 $x35992 $x36413 $x37532) (or $x1120 $x36550 (<= S_3 (+ ?x590 A_5 ?x705 ?x659))) (or $x985 $x991 $x993 $x996 $x1558 (>= S_4 (+ ?x590 A_5 ?x705 ?x659))) $x44074 (>= S_0 (+ ?x645 ?x570 A_4 ?x6106)) (<= (+ ?x659 L_0 (* (- 1.0) A_0) S_2) 0.0) (<= (+ ?x645 ?x570 A_4 (* (- 4.0) C)) (+ A_0 ?x705)) (<= (+ ?x659 S_2 (* (- 1.0) S_1)) 0.0) (<= (+ ?x1725 (* (- 1.0) S_0) S_2) 0.0) (or $x89 $x35992 $x36395 $x36593 $x37532) $x81446 $x43038 $x79573 (<= S_3 ?x36041) $x77665 (or $x510 $x1120 $x35836 $x36550 $x36881 $x37286) $x49355 (<= (+ ?x659 S_5 (* (- 1.0) S_4)) 0.0) (or (not (= L_1 L_3)) (<= ?x316 B)) (or $x3622 (<= (+ C (* (- 1.0) S_4) S_2) 0.0)) $x78021 $x77797 (<= (+ (* (- 1.0) A_1) ?x659 L_0 S_3) 0.0) (<= S_5 (+ A_2 ?x373 (* 3.0 C))) (or $x1120 (<= S_2 (+ ?x590 A_5 ?x705 ?x1725)) $x36550 $x36690) $x79374 (or $x510 $x1120 $x35826 $x36779 $x37602) (or $x510 $x1120 $x36550 $x37602 $x38522) (or $x510 $x1120 $x35992 $x36550 $x36881 $x37878) $x43489 (or $x1558 (not $x36477) (not $x36550) $x41594) $x41440 (<= (+ ?x659 (* (- 1.0) S_2) S_3) 0.0) (<= (+ ?x659 S_4 (* (- 1.0) S_3)) 0.0) (<= (+ (* (- 4.0) C) S_5 (* (- 1.0) S_2)) 0.0) (<= S_4 (+ A_2 ?x373 ?x1179)) (<= (+ ?x6106 (* (- 1.0) S_0) S_4) 0.0) $x45632 (<= (+ ?x1725 S_3 (* (- 1.0) S_1)) 0.0) (or $x985 $x991 $x993 $x996 $x1558 (>= S_1 ?x36880)) (or $x1120 $x36525 $x36550 $x36690 $x36881 $x37286) (or $x1120 $x35836 $x36550 $x36690 $x37532 $x37787) (or $x985 $x991 $x993 $x996 $x1558 $x37457) (or $x1120 (not (<= L_3 L_0)) $x36550 $x36593 $x37602 $x38357) $x79458 (or $x510 $x1120 $x35826 $x35992 $x36779 $x37532) (or $x510 $x1120 $x35992 $x36550 $x37532 $x38522) (or $x985 $x991 $x993 $x1558 $x36477 $x37462) (or $x1558 (not (<= L_4 L_0)) $x37462) (or $x1120 $x4149 $x35811 $x36593 $x36690 $x37602) (or $x1120 $x35992 $x36550 $x36593 $x36690 $x37532) (<= (+ ?x1725 S_4 (* (- 1.0) S_2)) 0.0) (<= (+ (* (- 4.0) C) S_4 (* (- 1.0) S_1)) 0.0) (<= (+ ?x1725 L_0 (* (- 1.0) A_0) S_3) 0.0) (<= (+ (* (- 4.0) C) (* (- 1.0) S_0) S_3) 0.0) (<= (+ ?x1725 S_5 (* (- 1.0) S_3)) 0.0) (<= (+ L_0 S_5 (* (- 4.0) C) (* (- 1.0) A_1)) 0.0) (<= (+ (* (- 4.0) C) L_0 (* (- 1.0) A_0) S_4) 0.0) (<= (+ (* (- 1.0) A_1) ?x1725 L_0 S_4) 0.0) (<= (+ (* (- 6.0) C) (* (- 1.0) S_0) S_5) 0.0) (<= (+ ?x6106 S_5 (* (- 1.0) S_1)) 0.0) (<= (+ ?x6106 L_0 (* (- 1.0) A_0) S_5) 0.0) $x701 $x685 $x42 (<= (+ L_0 S_0 (* (- 1.0) A_0)) 0.0) (<= (+ ?x659 (* (- 1.0) S_0) S_1) 0.0)))))))))))))))))))))))))))))))))))))))))))))))))))))))))))))))))))))))))))))))))))))))))))))))))))))))))))))))))))))))))))))))))))))))))))))))))))))))))))))))
(check-sat)
